(set-info :smt-lib-version 2.6)
(set-logic ALL)
(declare-sort Nat$ 0)
(declare-fun to_int$ (Nat$) Int)
(declare-fun nat_step$ (Nat$) Nat$)
(set-info :source |
Alberto Griggio

|)
(set-info :category "crafted")
(set-info :status unsat)
(declare-fun v0 () Nat$)
(declare-fun v1 () Nat$)
(declare-fun v2 () Nat$)
(declare-fun s_0 () Nat$)
(declare-fun o_0 () Nat$)
(declare-fun s_1 () Nat$)
(declare-fun o_1 () Nat$)
(declare-fun o_2 () Nat$)
(declare-fun s_3 () Nat$)
(declare-fun o_3 () Nat$)
(declare-fun A_itev1 () Int)
(declare-fun A_itev2 () Int)
(assert (let ((?v_25 (- A_itev2)) (?v_4 (* (to_int$ v2) 2)) (?v_23 (* A_itev2 2)) (?v_13 (* (to_int$ v1) 2)) (?v_1 (<= 16 (to_int$ v2)))) (let ((?v_8 (not ?v_1)) (?v_7 (= A_itev2 A_itev1)) (?v_6 (= (+ ?v_25 ?v_4) 0)) (?v_5 (<= 8 (to_int$ v2))) (?v_0 (+ (- A_itev1) ?v_4))) (let ((?v_3 (= ?v_0 16)) (?v_2 (= ?v_0 32)) (?v_24 (* (to_int$ s_0) (- 8)))) (let ((?v_9 (+ ?v_24 (to_int$ v1))) (?v_14 (* (to_int$ s_0) (- 16)))) (let ((?v_11 (+ (+ ?v_13 (to_int$ v0)) ?v_14)) (?v_15 (* (to_int$ o_0) (- 16)))) (let ((?v_10 (+ ?v_11 ?v_15)) (?v_12 (+ (* (to_int$ s_1) (- 4)) (to_int$ v2))) (?v_17 (+ (+ (+ (+ (+ ?v_13 (* (to_int$ v2) 4)) (to_int$ v0)) (* (to_int$ s_1) (- 16))) ?v_14) ?v_15))) (let ((?v_16 (+ (* (to_int$ o_1) (- 16)) ?v_17)) (?v_19 (+ (* (to_int$ o_2) (- 16)) (to_int$ v1)))) (let ((?v_18 (+ ?v_19 A_itev2)) (?v_20 (+ (+ (* (to_int$ s_3) (- 8)) ?v_19) A_itev2)) (?v_22 (+ (+ (+ (* (to_int$ o_2) (- 32)) ?v_13) (* (to_int$ s_3) (- 16))) (to_int$ v0)))) (let ((?v_21 (+ (+ (* (to_int$ o_3) (- 16)) ?v_22) ?v_23))) (and (and (and (and (and (and (or ?v_2 ?v_8) (or ?v_3 ?v_1)) (or ?v_2 ?v_3)) (or ?v_5 ?v_6)) (or (not ?v_5) ?v_7)) (or ?v_6 ?v_7)) (and (and (and (and (and (and (and (and (and (and (and (and (and (and (and (and (and (and (and (and (and (and (and (and (and (<= 0 (to_int$ v0)) (not (<= 16 (to_int$ v0)))) (and (<= 0 (to_int$ v1)) (not (<= 16 (to_int$ v1))))) (and (<= 0 (to_int$ v2)) ?v_8)) (and (not (<= 2 (to_int$ s_0))) (<= 0 (to_int$ s_0)))) (and (<= 0 ?v_9) (not (<= 8 ?v_9)))) (= (<= 1 (to_int$ s_0)) (not (<= (to_int$ v1) 8)))) (and (<= 0 (to_int$ o_0)) (<= (to_int$ o_0) 1))) (and (<= 0 ?v_10) (not (<= 16 ?v_10)))) (= (not (<= ?v_11 16)) (= (to_int$ o_0) 1))) (and (not (<= 4 (to_int$ s_1))) (<= 0 (to_int$ s_1)))) (and (<= 0 ?v_12) (not (<= 4 ?v_12)))) (= (<= 1 (to_int$ s_1)) (not (<= (to_int$ v2) 4)))) (and (<= 0 (to_int$ o_1)) (<= (to_int$ o_1) 1))) (and (<= 0 ?v_16) (not (<= 16 ?v_16)))) (= (not (<= ?v_17 16)) (= (to_int$ o_1) 1))) (and (<= 0 (to_int$ o_2)) (<= (to_int$ o_2) 1))) (and (<= 0 ?v_18) (not (<= 16 ?v_18)))) (= (not (<= (+ A_itev2 (to_int$ v1)) 16)) (= (to_int$ o_2) 1))) (and (not (<= 2 (to_int$ s_3))) (<= 0 (to_int$ s_3)))) (and (<= 0 ?v_20) (not (<= 8 ?v_20)))) (= (<= 1 (to_int$ s_3)) (not (<= ?v_18 8)))) (and (<= 0 (to_int$ o_3)) (<= (to_int$ o_3) 1))) (and (<= 0 ?v_21) (not (<= 16 ?v_21)))) (= (not (<= (+ ?v_22 ?v_23) 16)) (= (to_int$ o_3) 1))) (not (= (+ (+ (+ (+ (+ (+ (+ (+ (* (to_int$ o_2) 16) ?v_4) (* (to_int$ s_3) 8)) (* (to_int$ o_3) 8)) (* (to_int$ s_1) (- 8))) ?v_24) (* (to_int$ o_0) (- 8))) (* (to_int$ o_1) (- 8))) ?v_25) 0))))))))))))))
(assert (= (to_int$ (nat_step$ v0)) (to_int$ v0)))
(assert (= (to_int$ (nat_step$ v1)) (to_int$ v1)))
(assert (= (to_int$ (nat_step$ v2)) (to_int$ v2)))
(check-sat)
(exit)
